pMedian	pDispersion
14064.0	40.0
14482.0	42.0
14970.0	43.0
14274.0	41.0
13910.0	36.0
24831.0	57.0
20693.0	52.0
24043.0	56.0
16406.0	44.0
17530.0	46.0
19579.0	51.0
22034.0	53.0
22503.0	54.0
17830.0	48.0
16538.0	45.0
10934.0	21.0
10949.0	22.0
10525.0	19.0
10316.0	15.0
10098.0	13.0
10086.0	10.0
11417.0	23.0
13656.0	33.0
13779.0	35.0
10867.0	20.0
13395.0	31.0
13470.0	32.0
12977.0	30.0
12398.0	26.0
22543.0	55.0
12380.0	25.0
12758.0	27.0
10095.0	11.0
12151.0	24.0
10128.0	14.0
